
Gurobi 11.0.3 (linux64) logging started Mon Aug 25 16:42:52 2025

Set parameter LogFile to value "/home/yihong/Coding/OR_SUC/SUC_epstheta_results_bigM100000_thread4/case24_ieee_rts_theta0.001_epsilon0.1_gurobi_seed50000_num_gen100_N_WDR50_load_scaling_factor1_proposed_eps_T1quadra_cost_bc1.03.txt"
Set parameter TimeLimit to value 3600
Gurobi Optimizer version 11.0.3 build v11.0.3rc0 (linux64 - "Ubuntu 20.04.6 LTS")

CPU model: AMD EPYC 7532 32-Core Processor, instruction set [SSE2|AVX|AVX2]
Thread count: 64 physical cores, 128 logical processors, using up to 4 threads

Academic license 2399124 - for non-commercial use only - registered to yi___@ed.ac.uk
Optimize a model with 1871 rows, 1291 columns and 53206 nonzeros
Model fingerprint: 0xd162991a
Model has 100 quadratic constraints
Variable types: 1191 continuous, 100 integer (100 binary)
Coefficient statistics:
  Matrix range     [3e-04, 6e+01]
  QMatrix range    [2e-03, 8e-03]
  QLMatrix range   [2e-01, 6e+01]
  Objective range  [1e+00, 1e+00]
  Bounds range     [1e+00, 1e+00]
  RHS range        [5e-02, 8e+03]
Presolve removed 1641 rows and 761 columns
Presolve time: 0.01s
Presolved: 230 rows, 530 columns, 1708 nonzeros
Presolved model has 100 quadratic constraint(s)
Variable types: 430 continuous, 100 integer (100 binary)

Root relaxation: objective 9.985634e+02, 103 iterations, 0.00 seconds (0.00 work units)

    Nodes    |    Current Node    |     Objective Bounds      |     Work
 Expl Unexpl |  Obj  Depth IntInf | Incumbent    BestBd   Gap | It/Node Time

     0     0  998.56340    0    1          -  998.56340      -     -    0s
     0     0 1223.90008    0   54          - 1223.90008      -     -    0s
     0     0 17188.2668    0   28          - 17188.2668      -     -    0s
     0     0 17190.1914    0   28          - 17190.1914      -     -    0s
     0     0 18939.9111    0    3          - 18939.9111      -     -    0s
     0     0 18941.7176    0    2          - 18941.7176      -     -    0s
     0     0 18941.7176    0    2          - 18941.7176      -     -    0s
     0     2 18941.7176    0    2          - 18941.7176      -     -    0s
H    2     2                    18945.651851 18943.6315  0.01%   3.0    0s
*    2     2               1    18945.651851 18943.8218  0.01%   5.5    0s

Cutting planes:
  Gomory: 5
  Implied bound: 36
  MIR: 12
  Flow cover: 72

Explored 3 nodes (572 simplex iterations) in 0.12 seconds (0.06 work units)
Thread count was 4 (of 128 available processors)

Solution count 2: 18945.7 18945.7 

Optimal solution found (tolerance 1.00e-03)
Warning: max constraint violation (2.5526e-08) exceeds tolerance
Best objective 1.894565185109e+04, best bound 1.894382175436e+04, gap 0.0097%

Gurobi 11.0.3 (linux64) logging started Mon Aug 25 16:42:52 2025

Set parameter LogFile to value "/home/yihong/Coding/OR_SUC/SUC_epstheta_results_bigM100000_thread4/case24_ieee_rts_theta0.001_epsilon0.1_gurobi_seed50000_num_gen100_N_WDR50_load_scaling_factor1_proposed_eps_T1quadra_cost_bc1.03.txt"
Set parameter TimeLimit to value 3600
Gurobi Optimizer version 11.0.3 build v11.0.3rc0 (linux64 - "Ubuntu 20.04.6 LTS")

CPU model: AMD EPYC 7532 32-Core Processor, instruction set [SSE2|AVX|AVX2]
Thread count: 64 physical cores, 128 logical processors, using up to 4 threads

Academic license 2399124 - for non-commercial use only - registered to yi___@ed.ac.uk
Optimize a model with 1871 rows, 1292 columns and 53465 nonzeros
Model fingerprint: 0x60c01475
Model has 101 quadratic constraints
Variable types: 1192 continuous, 100 integer (100 binary)
Coefficient statistics:
  Matrix range     [3e-04, 6e+01]
  QMatrix range    [2e-03, 5e+01]
  QLMatrix range   [2e-01, 6e+01]
  Objective range  [1e+00, 1e+00]
  Bounds range     [1e-01, 1e+00]
  RHS range        [1e+00, 2e+04]
  QRHS range       [5e-02, 5e-02]
Presolve removed 1640 rows and 761 columns
Presolve time: 0.01s
Presolved: 333 rows, 631 columns, 2535 nonzeros
Presolved model has 100 quadratic constraint(s)
Presolved model has 1 bilinear constraint(s)

Solving non-convex MIQCP

Variable types: 531 continuous, 100 integer (100 binary)

Root relaxation: objective 1.372545e-05, 379 iterations, 0.00 seconds (0.00 work units)

    Nodes    |    Current Node    |     Objective Bounds      |     Work
 Expl Unexpl |  Obj  Depth IntInf | Incumbent    BestBd   Gap | It/Node Time

     0     0    0.00001    0    2          -    0.00001      -     -    0s
     0     0    0.00001    0    2          -    0.00001      -     -    0s
     0     0    0.00001    0    2          -    0.00001      -     -    0s
     0     0    0.00001    0    2          -    0.00001      -     -    0s
     0     0    0.00001    0    2          -    0.00001      -     -    0s
H    0     0                       0.0003683    0.00001  96.3%     -    0s
H    0     0                       0.0002673    0.00001  94.9%     -    0s
H    0     0                       0.0002456    0.00001  94.4%     -    0s
     0     2    0.00023    0    2    0.00025    0.00023  7.87%     -    0s
*   27    19               5       0.0002314    0.00023  0.94%  10.4    0s
*   28    19               6       0.0002306    0.00023  0.64%  10.1    0s
H   31    13                       0.0002306    0.00023  0.64%   9.2    0s

Cutting planes:
  Gomory: 1
  Implied bound: 2

Explored 47 nodes (872 simplex iterations) in 0.19 seconds (0.10 work units)
Thread count was 4 (of 128 available processors)

Solution count 6: 0.00023064 0.000230646 0.00023135 ... 0.000368287

Optimal solution found (tolerance 1.00e-03)
Best objective 2.306401850579e-04, best bound 2.305084373856e-04, gap 0.0571%
